p wcnf 168 84 85 
1 -78 122 0 
1 104 -71 0 
1 77 88 0 
1 58 64 0 
1 -63 11 0 
1 78 -66 0 
1 -2 -135 0 
1 117 -25 0 
1 -2 156 0 
1 135 63 0 
1 81 -97 0 
1 165 -95 0 
1 94 113 0 
1 -161 63 0 
1 72 103 0 
1 50 -45 0 
1 -41 -127 0 
1 147 5 0 
1 100 -61 0 
1 -56 -11 0 
1 30 7 0 
1 -130 -75 0 
1 99 107 0 
1 -59 -35 0 
1 -110 -127 0 
1 16 31 0 
1 -93 14 0 
1 49 -150 0 
1 109 87 0 
1 -160 -117 0 
1 30 136 0 
1 31 -122 0 
1 -154 -71 0 
1 -63 80 0 
1 42 -3 0 
1 -152 -127 0 
1 43 137 0 
1 -66 118 0 
1 -118 22 0 
1 -56 -38 0 
1 -74 147 0 
1 -150 3 0 
1 102 -6 0 
1 29 89 0 
1 10 154 0 
1 -130 80 0 
1 73 -155 0 
1 52 -162 0 
1 123 105 0 
1 -54 68 0 
1 68 54 0 
1 118 -152 0 
1 130 -136 0 
1 12 -75 0 
1 -77 126 0 
1 -67 -153 0 
1 49 -11 0 
1 -139 130 0 
1 135 -98 0 
1 -4 43 0 
1 152 113 0 
1 36 -106 0 
1 -27 40 0 
1 -162 36 0 
1 -92 153 0 
1 94 -14 0 
1 -78 98 0 
1 46 -81 0 
1 48 45 0 
1 113 -4 0 
1 -14 -167 0 
1 -103 34 0 
1 -72 -134 0 
1 -144 22 0 
1 -55 -160 0 
1 57 -36 0 
1 94 -123 0 
1 -122 84 0 
1 161 97 0 
1 -88 -80 0 
1 114 -8 0 
1 -54 -72 0 
1 -65 152 0 
1 -131 -153 0 
